&inputpp
  prefix = 'x0',
  outdir = './',
  pseudo_dir = '/projects/academic/cyberwksp21/Instructors_material/alexeyak/qe/libra_qe/step2/PP/',
  psfile(1) = 'Cd.pbe-n-rrkjus_psl.1.0.0.UPF',
  psfile(2) = 'Se.pbe-dn-rrkjus_psl.1.0.0.UPF',
  single_file = .FALSE.,
  ascii = .TRUE.,
  uspp_spsi = .FALSE.,
/
